WARNING: for repeatability, setting FPU to use double precision
============================[ Problem Statistics ]=============================
|                                                                             |
|  Number of variables:         33791                                         |
|  Number of clauses:          475105                                         |
|  Parse time:                   0.19 s                                       |
|  Eliminated clauses:           0.03 Mb                                      |
|  Simplification time:          0.35 s                                       |
|                                                                             |
============================[ Search Statistics ]==============================
| Conflicts |          ORIGINAL         |          LEARNT          | Progress |
|           |    Vars  Clauses Literals |    Limit  Clauses Lit/Cl |          |
===============================================================================
|       100 |    4718    68692   191836 |    25187      100     35 | 81.557 % |
|       250 |    4718    68692   191836 |    27705      250     32 | 81.557 % |
|       475 |    4718    68692   191836 |    30476      475     31 | 81.557 % |
|       812 |    4718    68692   191836 |    33523      812     38 | 81.557 % |
|      1318 |    4718    68692   191836 |    36876     1318     39 | 81.557 % |
|      2077 |    4718    68692   191836 |    40564     2077     43 | 81.557 % |
|      3216 |    4718    68692   191836 |    44620     3216     55 | 81.557 % |
|      4924 |    4718    68692   191836 |    49082     4924     64 | 81.557 % |
|      7486 |    4718    68692   191836 |    53990     7486     65 | 81.557 % |
|     11330 |    4718    68692   191836 |    59389    11330     75 | 81.557 % |
|     17096 |    4718    68692   191836 |    65328    17096     73 | 81.557 % |
|     25745 |    4718    68692   191836 |    71861    25745     72 | 81.557 % |
===============================================================================
restarts              : 126
conflicts             : 37232          (21904 /sec)
decisions             : 223211         (0.00 % random) (131318 /sec)
propagations          : 2995480        (1762276 /sec)
conflict literals     : 2829370        (5.37 % deleted)
Memory used           : 70.00 MB
CPU time              : 1.69978 s

SATISFIABLE
WARNING: for repeatability, setting FPU to use double precision
============================[ Problem Statistics ]=============================
|                                                                             |
|  Number of variables:         33791                                         |
|  Number of clauses:          475105                                         |
|  Parse time:                   0.17 s                                       |
|  Eliminated clauses:           0.03 Mb                                      |
|  Simplification time:          0.24 s                                       |
|                                                                             |
============================[ Search Statistics ]==============================
| Conflicts |          ORIGINAL         |          LEARNT          | Progress |
|           |    Vars  Clauses Literals |    Limit  Clauses Lit/Cl |          |
===============================================================================
|       100 |    4718    68692   191836 |    25187      100     35 | 81.557 % |
|       250 |    4718    68692   191836 |    27705      250     32 | 81.557 % |
|       475 |    4718    68692   191836 |    30476      475     31 | 81.557 % |
|       812 |    4718    68692   191836 |    33523      812     38 | 81.557 % |
|      1318 |    4718    68692   191836 |    36876     1318     39 | 81.557 % |
|      2077 |    4718    68692   191836 |    40564     2077     43 | 81.557 % |
|      3216 |    4718    68692   191836 |    44620     3216     55 | 81.557 % |
|      4924 |    4718    68692   191836 |    49082     4924     64 | 81.557 % |
|      7486 |    4718    68692   191836 |    53990     7486     65 | 81.557 % |
|     11330 |    4718    68692   191836 |    59389    11330     75 | 81.557 % |
|     17096 |    4718    68692   191836 |    65328    17096     73 | 81.557 % |
|     25745 |    4718    68692   191836 |    71861    25745     72 | 81.557 % |
===============================================================================
restarts              : 126
conflicts             : 37232          (30643 /sec)
decisions             : 223211         (0.00 % random) (183709 /sec)
propagations          : 2995480        (2465367 /sec)
conflict literals     : 2829370        (5.37 % deleted)
Memory used           : 70.00 MB
CPU time              : 1.21502 s

SATISFIABLE
